\ Model casestr
\ LP format - for model browsing. Use MPS format to capture full model detail.
Minimize
  200 P_Gen[1,0] + 175 P_Gen[2,0] + 100 P_Gen[22,0] + 325 P_Gen[27,0]
   + 300 P_Gen[23,0] + 300 P_Gen[13,0] + [ 400 P_Gen[1,0] ^2
   + 350 P_Gen[2,0] ^2 + 1250 P_Gen[22,0] ^2 + 166.8 P_Gen[27,0] ^2
   + 500 P_Gen[23,0] ^2 + 500 P_Gen[13,0] ^2 ] / 2 
Subject To
 P-Balance[1,0]: - P_Inj[1,0] + P_Line[1,2,0] + P_Line[1,3,0] = 0
 P-Balance[2,0]: - P_Inj[2,0] - P_Line[1,2,0] + P_Line[2,4,0]
   + P_Line[2,5,0] + P_Line[2,6,0] = 0
 P-Balance[3,0]: - P_Inj[3,0] - P_Line[1,3,0] + P_Line[3,4,0] = 0
 P-Balance[4,0]: - P_Inj[4,0] - P_Line[2,4,0] - P_Line[3,4,0]
   + P_Line[4,6,0] + P_Line[4,12,0] = 0
 P-Balance[5,0]: - P_Inj[5,0] - P_Line[2,5,0] + P_Line[5,7,0] = 0
 P-Balance[6,0]: - P_Inj[6,0] - P_Line[2,6,0] - P_Line[4,6,0]
   + P_Line[6,7,0] + P_Line[6,8,0] + P_Line[6,9,0] + P_Line[6,10,0]
   + P_Line[6,28,0] = 0
 P-Balance[7,0]: - P_Inj[7,0] - P_Line[5,7,0] - P_Line[6,7,0] = 0
 P-Balance[8,0]: - P_Inj[8,0] - P_Line[6,8,0] + P_Line[8,28,0] = 0
 P-Balance[9,0]: - P_Inj[9,0] - P_Line[6,9,0] + P_Line[9,11,0]
   + P_Line[9,10,0] = 0
 P-Balance[10,0]: - P_Inj[10,0] - P_Line[6,10,0] - P_Line[9,10,0]
   + P_Line[10,20,0] + P_Line[10,17,0] + P_Line[10,21,0] + P_Line[10,22,0]
   = 0
 P-Balance[11,0]: - P_Inj[11,0] - P_Line[9,11,0] = 0
 P-Balance[12,0]: - P_Inj[12,0] - P_Line[4,12,0] + P_Line[12,13,0]
   + P_Line[12,14,0] + P_Line[12,15,0] + P_Line[12,16,0] = 0
 P-Balance[13,0]: - P_Inj[13,0] - P_Line[12,13,0] = 0
 P-Balance[14,0]: - P_Inj[14,0] - P_Line[12,14,0] + P_Line[14,15,0] = 0
 P-Balance[15,0]: - P_Inj[15,0] - P_Line[12,15,0] - P_Line[14,15,0]
   + P_Line[15,18,0] + P_Line[15,23,0] = 0
 P-Balance[16,0]: - P_Inj[16,0] - P_Line[12,16,0] + P_Line[16,17,0] = 0
 P-Balance[17,0]: - P_Inj[17,0] - P_Line[16,17,0] - P_Line[10,17,0] = 0
 P-Balance[18,0]: - P_Inj[18,0] - P_Line[15,18,0] + P_Line[18,19,0] = 0
 P-Balance[19,0]: - P_Inj[19,0] - P_Line[18,19,0] + P_Line[19,20,0] = 0
 P-Balance[20,0]: - P_Inj[20,0] - P_Line[19,20,0] - P_Line[10,20,0] = 0
 P-Balance[21,0]: - P_Inj[21,0] - P_Line[10,21,0] + P_Line[21,22,0] = 0
 P-Balance[22,0]: - P_Inj[22,0] - P_Line[10,22,0] - P_Line[21,22,0]
   + P_Line[22,24,0] = 0
 P-Balance[23,0]: - P_Inj[23,0] - P_Line[15,23,0] + P_Line[23,24,0] = 0
 P-Balance[24,0]: - P_Inj[24,0] - P_Line[22,24,0] - P_Line[23,24,0]
   + P_Line[24,25,0] = 0
 P-Balance[25,0]: - P_Inj[25,0] - P_Line[24,25,0] + P_Line[25,26,0]
   + P_Line[25,27,0] = 0
 P-Balance[26,0]: - P_Inj[26,0] - P_Line[25,26,0] = 0
 P-Balance[27,0]: - P_Inj[27,0] - P_Line[25,27,0] - P_Line[28,27,0]
   + P_Line[27,29,0] + P_Line[27,30,0] = 0
 P-Balance[28,0]: - P_Inj[28,0] + P_Line[28,27,0] - P_Line[8,28,0]
   - P_Line[6,28,0] = 0
 P-Balance[29,0]: - P_Inj[29,0] - P_Line[27,29,0] + P_Line[29,30,0] = 0
 P-Balance[30,0]: - P_Inj[30,0] - P_Line[27,30,0] - P_Line[29,30,0] = 0
 P-Injection[1,0]: - P_Gen[1,0] + P_Inj[1,0] = 0
 P-Injection[2,0]: - P_Gen[2,0] + P_Inj[2,0] = -0.217
 P-Injection[3,0]: P_Inj[3,0] = -0.024
 P-Injection[4,0]: P_Inj[4,0] = -0.076
 P-Injection[5,0]: P_Inj[5,0] = 0
 P-Injection[6,0]: P_Inj[6,0] = 0
 P-Injection[7,0]: P_Inj[7,0] = -0.228
 P-Injection[8,0]: P_Inj[8,0] = -0.3
 P-Injection[9,0]: P_Inj[9,0] = 0
 P-Injection[10,0]: P_Inj[10,0] = -0.058
 P-Injection[11,0]: P_Inj[11,0] = 0
 P-Injection[12,0]: P_Inj[12,0] = -0.112
 P-Injection[13,0]: - P_Gen[13,0] + P_Inj[13,0] = 0
 P-Injection[14,0]: P_Inj[14,0] = -0.062
 P-Injection[15,0]: P_Inj[15,0] = -0.082
 P-Injection[16,0]: P_Inj[16,0] = -0.035
 P-Injection[17,0]: P_Inj[17,0] = -0.09
 P-Injection[18,0]: P_Inj[18,0] = -0.032
 P-Injection[19,0]: P_Inj[19,0] = -0.095
 P-Injection[20,0]: P_Inj[20,0] = -0.022
 P-Injection[21,0]: P_Inj[21,0] = -0.175
 P-Injection[22,0]: - P_Gen[22,0] + P_Inj[22,0] = 0
 P-Injection[23,0]: - P_Gen[23,0] + P_Inj[23,0] = -0.032
 P-Injection[24,0]: P_Inj[24,0] = -0.087
 P-Injection[25,0]: P_Inj[25,0] = 0
 P-Injection[26,0]: P_Inj[26,0] = -0.035
 P-Injection[27,0]: - P_Gen[27,0] + P_Inj[27,0] = 0
 P-Injection[28,0]: P_Inj[28,0] = 0
 P-Injection[29,0]: P_Inj[29,0] = -0.024
 P-Injection[30,0]: P_Inj[30,0] = -0.106
 Angle-Diff[1,2,0]: - 16.66666666666667 Theta[1,0]
   + 16.66666666666667 Theta[2,0] + P_Line[1,2,0] = 0
 Angle-Diff[1,3,0]: - 5.263157894736842 Theta[1,0]
   + 5.263157894736842 Theta[3,0] + P_Line[1,3,0] = 0
 Angle-Diff[2,4,0]: - 5.88235294117647 Theta[2,0]
   + 5.88235294117647 Theta[4,0] + P_Line[2,4,0] = 0
 Angle-Diff[3,4,0]: - 25 Theta[3,0] + 25 Theta[4,0] + P_Line[3,4,0] = 0
 Angle-Diff[2,5,0]: - 5 Theta[2,0] + 5 Theta[5,0] + P_Line[2,5,0] = 0
 Angle-Diff[2,6,0]: - 5.555555555555555 Theta[2,0]
   + 5.555555555555555 Theta[6,0] + P_Line[2,6,0] = 0
 Angle-Diff[4,6,0]: - 25 Theta[4,0] + 25 Theta[6,0] + P_Line[4,6,0] = 0
 Angle-Diff[5,7,0]: - 8.333333333333334 Theta[5,0]
   + 8.333333333333334 Theta[7,0] + P_Line[5,7,0] = 0
 Angle-Diff[6,7,0]: - 12.5 Theta[6,0] + 12.5 Theta[7,0] + P_Line[6,7,0]
   = 0
 Angle-Diff[6,8,0]: - 25 Theta[6,0] + 25 Theta[8,0] + P_Line[6,8,0] = 0
 Angle-Diff[6,9,0]: - 4.761904761904762 Theta[6,0]
   + 4.761904761904762 Theta[9,0] + P_Line[6,9,0] = 0
 Angle-Diff[6,10,0]: - 1.785714285714286 Theta[6,0]
   + 1.785714285714286 Theta[10,0] + P_Line[6,10,0] = 0
 Angle-Diff[9,11,0]: - 4.761904761904762 Theta[9,0]
   + 4.761904761904762 Theta[11,0] + P_Line[9,11,0] = 0
 Angle-Diff[9,10,0]: - 9.090909090909092 Theta[9,0]
   + 9.090909090909092 Theta[10,0] + P_Line[9,10,0] = 0
 Angle-Diff[4,12,0]: - 3.846153846153846 Theta[4,0]
   + 3.846153846153846 Theta[12,0] + P_Line[4,12,0] = 0
 Angle-Diff[12,13,0]: - 7.142857142857142 Theta[12,0]
   + 7.142857142857142 Theta[13,0] + P_Line[12,13,0] = 0
 Angle-Diff[12,14,0]: - 3.846153846153846 Theta[12,0]
   + 3.846153846153846 Theta[14,0] + P_Line[12,14,0] = 0
 Angle-Diff[12,15,0]: - 7.692307692307692 Theta[12,0]
   + 7.692307692307692 Theta[15,0] + P_Line[12,15,0] = 0
 Angle-Diff[12,16,0]: - 5 Theta[12,0] + 5 Theta[16,0] + P_Line[12,16,0]
   = 0
 Angle-Diff[14,15,0]: - 5 Theta[14,0] + 5 Theta[15,0] + P_Line[14,15,0]
   = 0
 Angle-Diff[16,17,0]: - 5.263157894736842 Theta[16,0]
   + 5.263157894736842 Theta[17,0] + P_Line[16,17,0] = 0
 Angle-Diff[15,18,0]: - 4.545454545454546 Theta[15,0]
   + 4.545454545454546 Theta[18,0] + P_Line[15,18,0] = 0
 Angle-Diff[18,19,0]: - 7.692307692307692 Theta[18,0]
   + 7.692307692307692 Theta[19,0] + P_Line[18,19,0] = 0
 Angle-Diff[19,20,0]: - 14.28571428571428 Theta[19,0]
   + 14.28571428571428 Theta[20,0] + P_Line[19,20,0] = 0
 Angle-Diff[10,20,0]: - 4.761904761904762 Theta[10,0]
   + 4.761904761904762 Theta[20,0] + P_Line[10,20,0] = 0
 Angle-Diff[10,17,0]: - 12.5 Theta[10,0] + 12.5 Theta[17,0]
   + P_Line[10,17,0] = 0
 Angle-Diff[10,21,0]: - 14.28571428571428 Theta[10,0]
   + 14.28571428571428 Theta[21,0] + P_Line[10,21,0] = 0
 Angle-Diff[10,22,0]: - 6.666666666666667 Theta[10,0]
   + 6.666666666666667 Theta[22,0] + P_Line[10,22,0] = 0
 Angle-Diff[21,22,0]: - 50 Theta[21,0] + 50 Theta[22,0] + P_Line[21,22,0]
   = 0
 Angle-Diff[15,23,0]: - 5 Theta[15,0] + 5 Theta[23,0] + P_Line[15,23,0]
   = 0
 Angle-Diff[22,24,0]: - 5.555555555555555 Theta[22,0]
   + 5.555555555555555 Theta[24,0] + P_Line[22,24,0] = 0
 Angle-Diff[23,24,0]: - 3.703703703703703 Theta[23,0]
   + 3.703703703703703 Theta[24,0] + P_Line[23,24,0] = 0
 Angle-Diff[24,25,0]: - 3.03030303030303 Theta[24,0]
   + 3.03030303030303 Theta[25,0] + P_Line[24,25,0] = 0
 Angle-Diff[25,26,0]: - 2.631578947368421 Theta[25,0]
   + 2.631578947368421 Theta[26,0] + P_Line[25,26,0] = 0
 Angle-Diff[25,27,0]: - 4.761904761904762 Theta[25,0]
   + 4.761904761904762 Theta[27,0] + P_Line[25,27,0] = 0
 Angle-Diff[28,27,0]: 2.5 Theta[27,0] - 2.5 Theta[28,0] + P_Line[28,27,0]
   = 0
 Angle-Diff[27,29,0]: - 2.380952380952381 Theta[27,0]
   + 2.380952380952381 Theta[29,0] + P_Line[27,29,0] = 0
 Angle-Diff[27,30,0]: - 1.666666666666667 Theta[27,0]
   + 1.666666666666667 Theta[30,0] + P_Line[27,30,0] = 0
 Angle-Diff[29,30,0]: - 2.222222222222222 Theta[29,0]
   + 2.222222222222222 Theta[30,0] + P_Line[29,30,0] = 0
 Angle-Diff[8,28,0]: - 5 Theta[8,0] + 5 Theta[28,0] + P_Line[8,28,0] = 0
 Angle-Diff[6,28,0]: - 16.66666666666667 Theta[6,0]
   + 16.66666666666667 Theta[28,0] + P_Line[6,28,0] = 0
 Slack-Angle[1,0]: Theta[1,0] = 0
Bounds
 P_Gen[1,0] <= 0.8
 P_Gen[2,0] <= 0.8
 P_Gen[22,0] <= 0.5
 P_Gen[27,0] <= 0.55
 P_Gen[23,0] <= 0.3
 P_Gen[13,0] <= 0.4
 P_Inj[1,0] free
 P_Inj[2,0] free
 P_Inj[3,0] free
 P_Inj[4,0] free
 P_Inj[5,0] free
 P_Inj[6,0] free
 P_Inj[7,0] free
 P_Inj[8,0] free
 P_Inj[9,0] free
 P_Inj[10,0] free
 P_Inj[11,0] free
 P_Inj[12,0] free
 P_Inj[13,0] free
 P_Inj[14,0] free
 P_Inj[15,0] free
 P_Inj[16,0] free
 P_Inj[17,0] free
 P_Inj[18,0] free
 P_Inj[19,0] free
 P_Inj[20,0] free
 P_Inj[21,0] free
 P_Inj[22,0] free
 P_Inj[23,0] free
 P_Inj[24,0] free
 P_Inj[25,0] free
 P_Inj[26,0] free
 P_Inj[27,0] free
 P_Inj[28,0] free
 P_Inj[29,0] free
 P_Inj[30,0] free
 -3.141592653589793 <= Theta[1,0] <= 3.141592653589793
 -3.141592653589793 <= Theta[2,0] <= 3.141592653589793
 -3.141592653589793 <= Theta[3,0] <= 3.141592653589793
 -3.141592653589793 <= Theta[4,0] <= 3.141592653589793
 -3.141592653589793 <= Theta[5,0] <= 3.141592653589793
 -3.141592653589793 <= Theta[6,0] <= 3.141592653589793
 -3.141592653589793 <= Theta[7,0] <= 3.141592653589793
 -3.141592653589793 <= Theta[8,0] <= 3.141592653589793
 -3.141592653589793 <= Theta[9,0] <= 3.141592653589793
 -3.141592653589793 <= Theta[10,0] <= 3.141592653589793
 -3.141592653589793 <= Theta[11,0] <= 3.141592653589793
 -3.141592653589793 <= Theta[12,0] <= 3.141592653589793
 -3.141592653589793 <= Theta[13,0] <= 3.141592653589793
 -3.141592653589793 <= Theta[14,0] <= 3.141592653589793
 -3.141592653589793 <= Theta[15,0] <= 3.141592653589793
 -3.141592653589793 <= Theta[16,0] <= 3.141592653589793
 -3.141592653589793 <= Theta[17,0] <= 3.141592653589793
 -3.141592653589793 <= Theta[18,0] <= 3.141592653589793
 -3.141592653589793 <= Theta[19,0] <= 3.141592653589793
 -3.141592653589793 <= Theta[20,0] <= 3.141592653589793
 -3.141592653589793 <= Theta[21,0] <= 3.141592653589793
 -3.141592653589793 <= Theta[22,0] <= 3.141592653589793
 -3.141592653589793 <= Theta[23,0] <= 3.141592653589793
 -3.141592653589793 <= Theta[24,0] <= 3.141592653589793
 -3.141592653589793 <= Theta[25,0] <= 3.141592653589793
 -3.141592653589793 <= Theta[26,0] <= 3.141592653589793
 -3.141592653589793 <= Theta[27,0] <= 3.141592653589793
 -3.141592653589793 <= Theta[28,0] <= 3.141592653589793
 -3.141592653589793 <= Theta[29,0] <= 3.141592653589793
 -3.141592653589793 <= Theta[30,0] <= 3.141592653589793
 -1.3 <= P_Line[1,2,0] <= 1.3
 -1.3 <= P_Line[1,3,0] <= 1.3
 -0.65 <= P_Line[2,4,0] <= 0.65
 -1.3 <= P_Line[3,4,0] <= 1.3
 -1.3 <= P_Line[2,5,0] <= 1.3
 -0.65 <= P_Line[2,6,0] <= 0.65
 -0.9 <= P_Line[4,6,0] <= 0.9
 -0.7 <= P_Line[5,7,0] <= 0.7
 -1.3 <= P_Line[6,7,0] <= 1.3
 -0.32 <= P_Line[6,8,0] <= 0.32
 -0.65 <= P_Line[6,9,0] <= 0.65
 -0.32 <= P_Line[6,10,0] <= 0.32
 -0.65 <= P_Line[9,11,0] <= 0.65
 -0.65 <= P_Line[9,10,0] <= 0.65
 -0.65 <= P_Line[4,12,0] <= 0.65
 -0.65 <= P_Line[12,13,0] <= 0.65
 -0.32 <= P_Line[12,14,0] <= 0.32
 -0.32 <= P_Line[12,15,0] <= 0.32
 -0.32 <= P_Line[12,16,0] <= 0.32
 -0.16 <= P_Line[14,15,0] <= 0.16
 -0.16 <= P_Line[16,17,0] <= 0.16
 -0.16 <= P_Line[15,18,0] <= 0.16
 -0.16 <= P_Line[18,19,0] <= 0.16
 -0.32 <= P_Line[19,20,0] <= 0.32
 -0.32 <= P_Line[10,20,0] <= 0.32
 -0.32 <= P_Line[10,17,0] <= 0.32
 -0.32 <= P_Line[10,21,0] <= 0.32
 -0.32 <= P_Line[10,22,0] <= 0.32
 -0.32 <= P_Line[21,22,0] <= 0.32
 -0.16 <= P_Line[15,23,0] <= 0.16
 -0.16 <= P_Line[22,24,0] <= 0.16
 -0.16 <= P_Line[23,24,0] <= 0.16
 -0.16 <= P_Line[24,25,0] <= 0.16
 -0.16 <= P_Line[25,26,0] <= 0.16
 -0.16 <= P_Line[25,27,0] <= 0.16
 -0.65 <= P_Line[28,27,0] <= 0.65
 -0.16 <= P_Line[27,29,0] <= 0.16
 -0.16 <= P_Line[27,30,0] <= 0.16
 -0.16 <= P_Line[29,30,0] <= 0.16
 -0.32 <= P_Line[8,28,0] <= 0.32
 -0.32 <= P_Line[6,28,0] <= 0.32
End
